Version identifier: 22.1.0.0 | 2022-03-09 | 1a383f8ce
CPXPARAM_Read_DataCheck                          1
Tried aggregator 4 times.
MIP Presolve eliminated 12240 rows and 2134 columns.
MIP Presolve modified 261 coefficients.
Aggregator did 10549 substitutions.
Reduced MIP has 2222 rows, 10933 columns, and 24097 nonzeros.
Reduced MIP has 10915 binaries, 18 generals, 0 SOSs, and 0 indicators.
Presolve time = 0.09 sec. (98.82 ticks)
Probing fixed 30 vars, tightened 0 bounds.
Probing changed sense of 6 constraints.
Probing time = 0.03 sec. (5.14 ticks)
Tried aggregator 2 times.
Detecting symmetries...
MIP Presolve eliminated 28 rows and 37 columns.
Aggregator did 14 substitutions.
Reduced MIP has 2180 rows, 10882 columns, and 23927 nonzeros.
Reduced MIP has 10864 binaries, 18 generals, 0 SOSs, and 0 indicators.
Presolve time = 0.02 sec. (24.55 ticks)
Probing fixed 4 vars, tightened 0 bounds.
Probing time = 0.03 sec. (4.62 ticks)
Clique table members: 22404.
MIP emphasis: balance optimality and feasibility.
MIP search method: dynamic search.
Parallel mode: deterministic, using up to 8 threads.
Root relaxation solution time = 0.16 sec. (81.75 ticks)

        Nodes                                         Cuts/
   Node  Left     Objective  IInf  Best Integer    Best Bound    ItCnt     Gap

      0     0       18.4414  1744                     18.4414     1987         
      0     0       31.0000   479                    Cuts: 59     4049         
      0     0       31.0000   461                    Cuts: 28     5635         
      0     0       31.0000   421                ZeroHalf: 12     6407         
      0     0       31.0000   492                ZeroHalf: 23     7528         
*     0+    0                           34.0000       31.0000             8.82%
*     0+    0                           33.0000       31.0000             6.06%
      0     0       31.0000   377       33.0000   ZeroHalf: 7     8563    6.06%
      0     0       31.0000   339       33.0000  ZeroHalf: 17     9749    6.06%
      0     0       31.0000   379       33.0000      Cuts: 21    10985    6.06%
      0     2       31.0000   175       33.0000       31.0000    10985    6.06%
Elapsed time = 8.50 sec. (6438.14 ticks, tree = 0.02 MB, solutions = 2)
      1     3       31.0000   277       33.0000       31.0000    13018    6.06%
      2     4       31.0000   227       33.0000       31.0000    14312    6.06%
      4     3       31.0000   310       33.0000       31.0000    13196    6.06%
      5     5       31.0000   253       33.0000       31.0000    16613    6.06%
      6     6       32.0000   126       33.0000       31.0000    20648    6.06%
*     7+    6                           32.0000       31.0000             3.12%
     21    15       31.0000   405       32.0000       31.0000    35870    3.12%
     43    23       31.0000   147       32.0000       31.0000    39277    3.12%
     83    40    infeasible             32.0000       31.0000    56545    3.12%
    111    43    infeasible             32.0000       31.0000    66680    3.12%

Cover cuts applied:  1
Zero-half cuts applied:  66
Lift and project cuts applied:  3
Gomory fractional cuts applied:  15

Root node processing (before b&c):
  Real time             =    8.46 sec. (6426.46 ticks)
Parallel b&c, 8 threads:
  Real time             =    5.02 sec. (3516.40 ticks)
  Sync time (average)   =    1.98 sec.
  Wait time (average)   =    0.00 sec.
                          ------------
Total (root+branch&cut) =   13.48 sec. (9942.86 ticks)
